p cnf 85 84
-4 0
-12 0
-22 0
-23 0
-39 0
-40 0
-53 0
-54 0
-55 0
-84 0
-85 0
-86 0
-87 0
-96 0
-95 -97 0
-98 0
-99 0
-111 0
-112 0
-117 0
-150 0
-151 0
-152 0
-153 0
-184 0
-185 0
-187 0
-188 0
-189 0
-190 0
-220 0
-221 0
-224 0
-226 0
-301 0
-302 0
-323 0
-324 0
-340 0
-341 0
-344 0
-345 0
-359 0
-360 0
-369 0
-387 0
-388 0
-407 0
-408 0
-417 0
-547 0
-548 0
-585 0
-586 0
-610 0
-611 0
-630 0
-635 0
-636 0
-669 0
-670 0
-711 0
-712 0
-736 0
-737 0
-751 0
-752 0
-757 0
-758 0
-767 0
-768 0
-770 0
-771 0
-783 0
-784 0
-793 0
-794 0
-806 0
-807 0
-883 0
-884 0
-916 0
-917 0
-935 0
